25 50
1 2 1
1 6 4
2 3 4
2 7 4
3 4 4
3 8 5
4 5 3
4 9 3
5 10 3
6 7 3
6 11 1
7 8 1
7 12 1
8 9 1
8 13 4
9 10 2
9 14 4
10 15 3
11 12 2
11 16 4
12 13 1
12 17 5
13 14 4
13 18 5
14 15 4
14 19 5
15 20 2
16 17 1
16 21 5
17 18 3
17 22 5
18 19 4
18 23 4
19 20 1
19 24 4
20 25 2
21 22 1
22 23 4
23 24 3
24 25 3
1 21 2
2 22 2
3 23 5
4 24 1
5 25 2
1 5 4
6 10 1
11 15 4
16 20 4
21 25 1
